p cnf 112 208
1 9 17 25 33 41 49 57 0
2 10 18 26 34 42 50 58 0
3 11 19 27 35 43 51 59 0
4 12 20 28 36 44 52 60 0
5 13 21 29 37 45 53 61 0
6 14 22 30 38 46 54 62 0
7 15 23 31 39 47 55 63 0
8 16 24 32 40 48 56 64 0
-1 65 0
-2 65 0
-1 -2 0
1 2 -65 0
-65 66 0
-3 66 0
-65 -3 0
65 3 -66 0
-66 67 0
-4 67 0
-66 -4 0
66 4 -67 0
-67 68 0
-5 68 0
-67 -5 0
67 5 -68 0
-68 69 0
-6 69 0
-68 -6 0
68 6 -69 0
-69 70 0
-7 70 0
-69 -7 0
69 7 -70 0
-70 -8 0
-9 71 0
-10 71 0
-9 -10 0
9 10 -71 0
-71 72 0
-11 72 0
-71 -11 0
71 11 -72 0
-72 73 0
-12 73 0
-72 -12 0
72 12 -73 0
-73 74 0
-13 74 0
-73 -13 0
73 13 -74 0
-74 75 0
-14 75 0
-74 -14 0
74 14 -75 0
-75 76 0
-15 76 0
-75 -15 0
75 15 -76 0
-76 -16 0
-17 77 0
-18 77 0
-17 -18 0
17 18 -77 0
-77 78 0
-19 78 0
-77 -19 0
77 19 -78 0
-78 79 0
-20 79 0
-78 -20 0
78 20 -79 0
-79 80 0
-21 80 0
-79 -21 0
79 21 -80 0
-80 81 0
-22 81 0
-80 -22 0
80 22 -81 0
-81 82 0
-23 82 0
-81 -23 0
81 23 -82 0
-82 -24 0
-25 83 0
-26 83 0
-25 -26 0
25 26 -83 0
-83 84 0
-27 84 0
-83 -27 0
83 27 -84 0
-84 85 0
-28 85 0
-84 -28 0
84 28 -85 0
-85 86 0
-29 86 0
-85 -29 0
85 29 -86 0
-86 87 0
-30 87 0
-86 -30 0
86 30 -87 0
-87 88 0
-31 88 0
-87 -31 0
87 31 -88 0
-88 -32 0
-33 89 0
-34 89 0
-33 -34 0
33 34 -89 0
-89 90 0
-35 90 0
-89 -35 0
89 35 -90 0
-90 91 0
-36 91 0
-90 -36 0
90 36 -91 0
-91 92 0
-37 92 0
-91 -37 0
91 37 -92 0
-92 93 0
-38 93 0
-92 -38 0
92 38 -93 0
-93 94 0
-39 94 0
-93 -39 0
93 39 -94 0
-94 -40 0
-41 95 0
-42 95 0
-41 -42 0
41 42 -95 0
-95 96 0
-43 96 0
-95 -43 0
95 43 -96 0
-96 97 0
-44 97 0
-96 -44 0
96 44 -97 0
-97 98 0
-45 98 0
-97 -45 0
97 45 -98 0
-98 99 0
-46 99 0
-98 -46 0
98 46 -99 0
-99 100 0
-47 100 0
-99 -47 0
99 47 -100 0
-100 -48 0
-49 101 0
-50 101 0
-49 -50 0
49 50 -101 0
-101 102 0
-51 102 0
-101 -51 0
101 51 -102 0
-102 103 0
-52 103 0
-102 -52 0
102 52 -103 0
-103 104 0
-53 104 0
-103 -53 0
103 53 -104 0
-104 105 0
-54 105 0
-104 -54 0
104 54 -105 0
-105 106 0
-55 106 0
-105 -55 0
105 55 -106 0
-106 -56 0
-57 107 0
-58 107 0
-57 -58 0
57 58 -107 0
-107 108 0
-59 108 0
-107 -59 0
107 59 -108 0
-108 109 0
-60 109 0
-108 -60 0
108 60 -109 0
-109 110 0
-61 110 0
-109 -61 0
109 61 -110 0
-110 111 0
-62 111 0
-110 -62 0
110 62 -111 0
-111 112 0
-63 112 0
-111 -63 0
111 63 -112 0
-112 -64 0
